examples/con/graph-20-49.param
$ generated by rg.pl with seed 49
letting n be 20
$ 34 edges
letting E be {{7,9},{16,19},{8,20},{17,19},{4,18},{3,7},{14,20},{13,18},{10,17},{12,14},{4,10},{2,5},{4,8},{1,13},{5,7},{13,15},{4,20},{6,15},{15,18},{2,4},{9,15},{10,15},{5,8},{13,16},{1,17},{6,10},{7,14},{1,6},{1,18},{2,15},{4,16},{6,8},{8,11},{12,17}}
